Log file: C:\Users\user\robust_bilevel_network_games\true_dro\log_polska_S20_20260416_1854526.txt
Started: 2026-04-16T18:54:25.526


======================================================================
INSTANCE: polska (S=20, ε̂=0.1, ε̃=0.1)
======================================================================
============================================================
POLSKA Network Summary
============================================================
Number of nodes: 12
Number of arcs (incl. dummy): 37
Number of regular arcs: 36
Number of interdictable arcs: 28
Source node: s (Szczecin)
Sink node: t (Rzeszow)
Node-incidence matrix N dimensions: (11, 37)

Sparsity Information:
  Arc-arc adjacency: 384 / 1296 pairs (70.4% sparse)
  Node-arc incidence: 68 / 396 pairs (82.8% sparse)

First 15 arcs:
  Arc 1: ("Bialystok", "Gdansk") [Interdictable: ✓]
  Arc 2: ("Bialystok", "Warsaw") [Interdictable: ✓]
  Arc 3: ("Bialystok", "t") [Interdictable: ✗]
  Arc 4: ("Bydgoszcz", "Kolobrzeg") [Interdictable: ✓]
  Arc 5: ("Bydgoszcz", "Poznan") [Interdictable: ✓]
  Arc 6: ("Bydgoszcz", "Warsaw") [Interdictable: ✓]
  Arc 7: ("Gdansk", "Bialystok") [Interdictable: ✓]
  Arc 8: ("Gdansk", "Kolobrzeg") [Interdictable: ✓]
  Arc 9: ("Gdansk", "Warsaw") [Interdictable: ✓]
  Arc 10: ("Katowice", "Krakow") [Interdictable: ✓]
  Arc 11: ("Katowice", "Lodz") [Interdictable: ✓]
  Arc 12: ("Katowice", "Wroclaw") [Interdictable: ✓]
  Arc 13: ("Kolobrzeg", "Bydgoszcz") [Interdictable: ✓]
  Arc 14: ("Kolobrzeg", "Gdansk") [Interdictable: ✓]
  Arc 15: ("Kolobrzeg", "s") [Interdictable: ✗]
============================================================
  |A|=36, S=20, γ=3, w=3.137, λU=2.0
  ε̂=0.1, ε̃=0.1

----------------------------------------
VI-only OMP diagnostic (no Benders cuts)
Set parameter Username
Set parameter LicenseID to value 2742039
Academic license - for non-commercial use only - expires 2026-11-20
Set parameter OutputFlag to value 1
Set parameter OutputFlag to value 1
Gurobi Optimizer version 13.0.0 build v13.0.0rc1 (win64 - Windows 10.0 (19045.2))

CPU model: AMD Ryzen 9 5900X 12-Core Processor, instruction set [SSE2|AVX|AVX2]
Thread count: 12 physical cores, 24 logical processors, using up to 24 threads

Optimize a model with 2910 rows, 1697 columns and 8465 nonzeros (Min)
Model fingerprint: 0xbbcde029
Model has 1 linear objective coefficients
Variable types: 1661 continuous, 36 integer (36 binary)
Coefficient statistics:
  Matrix range     [1e-02, 1e+00]
  Objective range  [1e+00, 1e+00]
  Bounds range     [1e+00, 1e+04]
  RHS range        [1e+00, 3e+00]
Found heuristic solution: objective 26.2956887
Presolve removed 1369 rows and 392 columns
Presolve time: 0.00s
Presolved: 1541 rows, 1305 columns, 3625 nonzeros
Found heuristic solution: objective 26.2956887
Variable types: 1280 continuous, 25 integer (25 binary)

Root relaxation: objective 5.717649e-15, 297 iterations, 0.00 seconds (0.00 work units)

    Nodes    |    Current Node    |     Objective Bounds      |     Work
 Expl Unexpl |  Obj  Depth IntInf | Incumbent    BestBd   Gap | It/Node Time

*    0     0               0       0.0000000    0.00000  0.00%     -    0s

Explored 1 nodes (297 simplex iterations) in 0.00 seconds (0.01 work units)
Thread count was 24 (of 24 available processors)

Solution count 2: 1.33227e-15 26.2957 

Optimal solution found (tolerance 1.00e-04)
Best objective 0.000000000000e+00, best bound 0.000000000000e+00, gap 0.0000%

User-callback calls 36, time in user-callback 0.00 sec
  VI-only LB = 0.000000, x = [0, 0, 0, 0, 0, 0, 0, 0, 0, 0, 0, 1, 0, 0, 0, 0, 0, 0, 0, 0, 1, 0, 1, 0, 0, 0, 0, 0, 0, 0, 0, 0, 0, 0, 0, 0]
----------------------------------------

======================================================================
1. True-DRO Benders (bilinear subproblem via Gurobi NonConvex=2)
======================================================================
Set parameter Username
Set parameter LicenseID to value 2742039
Academic license - for non-commercial use only - expires 2026-11-20
Set parameter Username
Set parameter LicenseID to value 2742039
Academic license - for non-commercial use only - expires 2026-11-20
Set parameter DualReductions to value 0
Set parameter NonConvex to value 2
Set parameter LogFile to value "global_miqcp.log"
Set parameter Username
Set parameter LicenseID to value 2742039
Academic license - for non-commercial use only - expires 2026-11-20
Set parameter DualReductions to value 0
Set parameter NonConvex to value 2
Set parameter OptimalityTarget to value 1
Set parameter Username
Set parameter LicenseID to value 2742039
Academic license - for non-commercial use only - expires 2026-11-20
Set parameter Username
Set parameter LicenseID to value 2742039
Academic license - for non-commercial use only - expires 2026-11-20

=== True-DRO Benders iter 1 ===
  OMP: t₀=0.000000, UB=Inf, gap=NaN, x=[0, 0, 0, 0, 0, 0, 0, 0, 0, 0, 0, 1, 0, 0, 0, 0, 0, 0, 0, 0, 1, 0, 1, 0, 0, 0, 0, 0, 0, 0, 0, 0, 0, 0, 0, 0] (0.017s)
Set parameter TimeLimit to value 30
Set parameter MIPGap to value 0.0001
Set parameter MIPFocus to value 0
Set parameter NonConvex to value 2
Set parameter MIPGap to value 0.0001
Set parameter DualReductions to value 0
Set parameter OptimalityTarget to value 1
Set parameter MIPFocus to value 0
Set parameter TimeLimit to value 30
Gurobi Optimizer version 13.0.0 build v13.0.0rc1 (win64 - Windows 10.0 (19045.2))

CPU model: AMD Ryzen 9 5900X 12-Core Processor, instruction set [SSE2|AVX|AVX2]
Thread count: 12 physical cores, 24 logical processors, using up to 24 threads

Non-default parameters:
TimeLimit  30
OptimalityTarget  1
DualReductions  0
NonConvex  2

Optimize a model with 4218 rows, 8405 columns and 20033 nonzeros (Max)
Model fingerprint: 0xfce3a5ef
Model has 1496 linear objective coefficients
Model has 1440 quadratic constraints
Coefficient statistics:
  Matrix range     [2e-01, 3e+01]
  QMatrix range    [1e+00, 1e+00]
  QLMatrix range   [1e+00, 1e+00]
  Objective range  [1e+00, 2e+00]
  Bounds range     [2e-01, 1e+01]
  RHS range        [5e-02, 3e+00]

Continuous model is non-convex -- solving with NL barrier

Presolve removed 1440 rows and 1440 columns
Presolve time: 0.00s
Presolved: 2778 rows, 6965 columns, 12833 nonzeros
Presolved model has 1440 quadratic constraint(s)
Ordering time: 0.00s

NL barrier statistics:
  Hessian NZ  : 1.440e+03
  Jacobian NZ : 2.003e+04
  Factor NZ   : 1.308e+05
  Factor Ops  : 2.546e+06
  Threads     : 1

                           Residuals
Iter     Objective      Primal     Dual      Compl     Step     Time
   0  -1.09367926e+04  7.68e+04  2.94e+03  2.29e+02  0.00e+00     0s
   1  -1.14707775e+04  5.36e+04  2.57e+03  1.99e+02  3.02e-01     0s
   2  -1.22696938e+04  2.69e+04  2.11e+03  1.71e+02  4.98e-01     0s
   3  -1.24264356e+04  2.24e+04  1.01e+03  7.85e+01  1.66e-01     0s
   4  -1.25876937e+04  1.59e+04  4.57e+02  3.53e+01  2.90e-01     0s
   5  -1.20697997e+04  4.81e+03  2.01e+02  1.48e+01  6.98e-01     0s
   6  -9.85525218e+03  1.06e+03  4.46e+01  3.81e+00  7.79e-01     0s
   7  -8.11707446e+03  6.14e+02  9.48e+00  1.83e+00  4.21e-01     0s
   8  -6.68198368e+03  3.33e+02  4.47e+00  1.42e+00  4.58e-01     0s
   9  -5.95179059e+03  1.97e+02  1.99e+00  1.22e+00  4.10e-01     0s
  10  -5.45713200e+03  1.07e+02  6.29e-01  1.10e+00  4.57e-01     0s
  11  -5.21711541e+03  6.74e+01  3.32e-01  1.06e+00  3.68e-01     0s
  12  -5.01683259e+03  3.51e+01  4.79e-02  1.02e+00  4.79e-01     0s
  13  -4.81762205e+03  8.67e-06  1.95e-04  1.00e+00  1.00e+00     0s
  14  -4.81248112e+03  1.43e-07  6.37e-06  1.00e+00  1.00e+00     0s
  15  -4.81193305e+03  3.55e-09  2.52e-08  1.00e+00  1.00e+00     0s
  16  -2.60876040e+03  1.01e-05  2.04e-03  4.04e-01  6.60e-01     0s
  17  -1.05479024e+03  8.96e-05  7.29e-02  2.85e-01  9.03e-01     0s
  18  -7.62614333e+02  5.32e-05  4.62e-02  1.50e-01  1.00e+00     0s
  19  -7.48248413e+02  6.32e-05  4.67e-03  1.50e-01  1.00e+00     0s
  20  -7.47743480e+02  3.78e-07  4.89e-05  1.50e-01  1.00e+00     0s
  21  -4.65825615e+02  9.70e-05  7.17e-02  8.26e-02  3.93e-01     0s
  22  -2.64856887e+02  3.33e-03  8.01e-02  5.19e-02  4.81e-01     0s
  23  -1.28493098e+02  3.54e-03  2.26e-01  2.84e-02  6.77e-01     0s
  24  -7.71351565e+01  1.41e-03  4.96e-02  2.27e-02  9.40e-01     0s
  25  -7.55166627e+01  1.34e-05  6.62e-04  2.25e-02  1.00e+00     0s
  26  -7.55382982e+01  2.51e-07  2.86e-05  2.25e-02  1.00e+00     0s
  27  -2.10183789e+01  4.79e-03  1.85e-01  1.35e-02  6.32e-01     0s
  28   6.61024122e-01  5.73e-03  8.90e-02  6.11e-03  7.92e-01     0s
  29   4.50713819e+00  4.60e-03  2.48e-02  3.43e-03  7.98e-01     0s
  30   5.52886317e+00  1.54e-04  2.46e-03  3.37e-03  1.00e+00     0s
  31   5.52994018e+00  2.71e-06  1.49e-05  3.37e-03  1.00e+00     0s
  32   5.53061506e+00  8.62e-10  1.95e-08  3.38e-03  1.00e+00     0s
  33   1.23672668e+01  5.87e-04  2.37e-02  1.22e-03  5.80e-01     0s
  34   1.60216238e+01  4.04e-04  1.20e-02  4.49e-04  7.71e-01     0s
  35   1.70261847e+01  1.89e-04  4.06e-03  3.46e-04  1.00e+00     0s
  36   1.70182360e+01  1.60e-06  1.49e-04  3.46e-04  1.00e+00     0s
  37   1.70184840e+01  7.27e-09  3.69e-07  3.46e-04  1.00e+00     0s
  38   1.76722611e+01  4.25e-05  5.91e-03  8.67e-05  5.39e-01     0s
  39   1.81594207e+01  6.40e-05  1.38e-03  2.37e-05  8.78e-01     0s
  40   1.82287928e+01  4.68e-06  7.88e-05  1.43e-05  1.00e+00     0s
  41   1.82286895e+01  1.45e-09  9.42e-06  1.43e-05  1.00e+00     0s
  42   1.82286877e+01  2.81e-12  1.59e-08  1.43e-05  1.00e+00     0s
  43   1.82789500e+01  1.30e-06  4.08e-05  7.35e-07  9.66e-01     0s
  44   1.82807857e+01  3.79e-09  1.64e-08  1.65e-07  1.00e+00     0s
  45   1.82807858e+01  4.89e-13  7.55e-10  1.65e-07  1.00e+00     0s
  46   1.82813911e+01  2.05e-10  4.32e-09  1.00e-09  1.00e+00     0s

NL barrier solved model in 46 iterations and 0.22 seconds (0.28 work units)
First-order optimal solution
Solution objective 1.828139106457e+01

User-callback calls 117, time in user-callback 0.00 sec
  Sub: Z₀=18.281391 [LOCAL], α=[0.000,0.000,0.000,0.000,0.000,0.000,0.000,0.000,0.000,0.000,0.000,0.000,0.000,0.000,0.000,0.000,0.000,0.000,0.000,0.000,0.000,0.000,3.137,0.000,0.000,0.000,0.000,0.000,0.000,0.000,0.000,0.000,0.000,0.000,0.000,0.000]
  Iter 1: LB=0.000000  UB=Inf  gap=NaN
  Cut: intercept=-889.128673, π_x_range=[-417.7660, 303.6719]
  [ρ-diag] φ̂U=1.00, φ̃U=2.00, λU=2.00
    π_L range=[-135.2085, 94.7276], |π_L|_∞=135.2085
    π_F range=[-269.3625, 191.8031], |π_F|_∞=269.3625
    π_ψ range=[-13.3333, 17.7835], |π_ψ|_∞=17.7835
    ρ̂1: [0.0000, 7.3940], ρ̂3: [0.0000, 5.0000]
    ρ̃1: [0.0000, 6.8636], ρ̃3: [0.0000, 4.9799]
    ρ⁰1: [0.0000, 6.6667], ρ⁰3: [0.0000, 8.8917]
  [φ-diag] φ̂ actual: [-0.0000, 1.0000], φ̂U=1.00
  [φ-diag] φ̃ actual: [-0.0000, 2.0000], φ̃U=2.00
  Mini-Benders[1] (mw): LB=0.000000, Z₀(α*)=18.281395, intercept=14.263756
  Mini-Benders[2] (mw): LB=-0.000000, Z₀(α*)=3.027837, intercept=-20.497120
  Mini-Benders[3] (mw): LB=1.509223, Z₀(α*)=4.805947, intercept=-16.283708
  Mini-Benders[4] (mw): LB=2.484152, Z₀(α*)=6.058335, intercept=-12.214684
  Mini-Benders[5] (mw): LB=3.027835, Z₀(α*)=3.027837, intercept=-20.497120
Set parameter NonConvex to value 2
Set parameter DualReductions to value 0
Set parameter LogFile to value "global_miqcp.log"
Gurobi Optimizer version 13.0.0 build v13.0.0rc1 (win64 - Windows 10.0 (19045.2))

CPU model: AMD Ryzen 9 5900X 12-Core Processor, instruction set [SSE2|AVX|AVX2]
Thread count: 12 physical cores, 24 logical processors, using up to 24 threads

Non-default parameters:
DualReductions  0
NonConvex  2

Optimize a model with 4218 rows, 8405 columns and 20033 nonzeros (Max)
Model fingerprint: 0xd3ed267e
Model has 1496 linear objective coefficients
Model has 1440 quadratic constraints
Coefficient statistics:
  Matrix range     [2e-01, 3e+01]
  QMatrix range    [1e+00, 1e+00]
  QLMatrix range   [1e+00, 1e+00]
  Objective range  [1e+00, 2e+00]
  Bounds range     [5e-02, 3e+00]
  RHS range        [5e-02, 3e+00]
Presolve removed 102 rows and 184 columns
Presolve time: 0.00s
Presolved: 5412 rows, 8221 columns, 19681 nonzeros
Ordering time: 0.02s

Barrier statistics:
 Free vars  : 200
 AA' NZ     : 3.622e+04
 Factor NZ  : 1.958e+05 (roughly 7 MB of memory)
 Factor Ops : 1.610e+07 (less than 1 second per iteration)
 Threads    : 12

                  Objective                Residual
Iter       Primal          Dual         Primal    Dual     Compl     Time
   0  -9.44448688e+03 -0.00000000e+00  1.58e+03 1.00e+00  2.40e+01     0s
   1  -9.70230299e+03  7.79138747e+02  6.98e+02 5.05e+00  1.35e+01     0s
   2  -8.88595833e+03  1.01796353e+03  1.61e+02 1.80e+00  4.72e+00     0s
   3  -6.18221150e+03  7.88594119e+02  1.92e+01 6.56e-01  1.64e+00     0s
   4  -2.20800595e+03  5.96096968e+02  8.10e-01 1.81e-01  4.34e-01     0s
   5  -5.01884651e+02  2.58996942e+02  1.59e-01 2.35e-02  8.21e-02     0s
   6  -1.13711624e+02  8.29967565e+01  4.24e-02 2.95e-03  1.91e-02     0s
   7  -3.52586053e+01  2.46467605e+01  1.66e-02 1.69e-04  5.02e-03     0s
   8  -1.07823947e+00  5.20616277e+00  1.67e-03 4.53e-06  5.00e-04     0s
   9   3.08410017e+00  3.17674487e+00  1.06e-05 2.02e-08  7.16e-06     0s
  10   3.13693076e+00  3.13706727e+00  3.41e-09 3.78e-11  1.05e-08     0s
  11   3.13700000e+00  3.13700000e+00  2.27e-09 4.49e-14  2.27e-14     0s

Barrier solved model in 11 iterations and 0.06 seconds (0.05 work units)
Optimal objective 3.13700000e+00


User-callback calls 55, time in user-callback 0.00 sec
  α-step: Z₀=3.137000, α=[0.000,0.000,0.000,0.000,0.000,1.040,0.000,0.000,0.000,0.000,0.000,0.000,0.000,0.941,0.000,0.000,0.000,0.000,0.000,0.000,0.000,0.000,1.156,0.000,0.000,0.000,0.000,0.000,0.000,0.000,0.000,0.000,0.000,0.000,0.000,0.000]
  Alt-Benders[1] (mw): LB=3.137000, Z₀(α*)=3.137000, intercept=-8.592029
  Alt-Benders[2] (mw): LB=3.136999, Z₀(α*)=3.137000, intercept=-8.592029
  Alt-Benders[3] (mw): LB=3.136999, Z₀(α*)=3.137000, intercept=-8.592029
  Alt-Benders[4]: LB stagnated, break
  OMP re-solve: 0.001s

=== True-DRO Benders iter 2 ===
  OMP: t₀=3.136999, UB=Inf, gap=NaN, x=[0, 0, 0, 0, 0, 1, 0, 0, 0, 0, 0, 0, 0, 1, 0, 0, 0, 0, 0, 0, 0, 0, 1, 0, 0, 0, 0, 0, 0, 0, 0, 0, 0, 0, 0, 0] (0.001s)
Set parameter TimeLimit to value 30
Set parameter MIPGap to value 0.0001
Set parameter MIPFocus to value 0
Gurobi Optimizer version 13.0.0 build v13.0.0rc1 (win64 - Windows 10.0 (19045.2))

CPU model: AMD Ryzen 9 5900X 12-Core Processor, instruction set [SSE2|AVX|AVX2]
Thread count: 12 physical cores, 24 logical processors, using up to 24 threads

Non-default parameters:
TimeLimit  30
OptimalityTarget  1
DualReductions  0
NonConvex  2

Optimize a model with 4218 rows, 8405 columns and 20033 nonzeros (Max)
Model fingerprint: 0x7f6119bd
Model has 1496 linear objective coefficients
Model has 1440 quadratic constraints
Variable types: 8405 continuous, 0 integer (0 binary)
Coefficient statistics:
  Matrix range     [2e-01, 3e+01]
  QMatrix range    [1e+00, 1e+00]
  QLMatrix range   [1e+00, 1e+00]
  Objective range  [1e+00, 2e+00]
  Bounds range     [2e-01, 1e+01]
  RHS range        [5e-02, 3e+00]
Presolve removed 1440 rows and 1440 columns
Presolve time: 0.01s
Presolved: 2778 rows, 6965 columns, 12833 nonzeros
Presolved model has 1440 quadratic constraint(s)

Solving NLP to local optimality

Ordering time: 0.01s

NL barrier statistics:
  Hessian NZ  : 1.440e+03
  Jacobian NZ : 2.003e+04
  Factor NZ   : 1.308e+05
  Factor Ops  : 2.546e+06
  Threads     : 1

                           Residuals
Iter     Objective      Primal     Dual      Compl     Step     Time
   0  -1.09507749e+04  7.68e+04  2.94e+03  2.29e+02  0.00e+00     0s
   1  -1.14789145e+04  5.36e+04  2.57e+03  1.99e+02  3.02e-01     0s
   2  -1.22690036e+04  2.69e+04  2.11e+03  1.71e+02  4.98e-01     0s
   3  -1.24239413e+04  2.24e+04  1.01e+03  7.85e+01  1.66e-01     0s
   4  -1.25823348e+04  1.59e+04  4.57e+02  3.53e+01  2.90e-01     0s
   5  -1.20582399e+04  4.81e+03  2.02e+02  1.48e+01  6.98e-01     0s
   6  -9.83670067e+03  1.04e+03  4.48e+01  3.82e+00  7.84e-01     0s
   7  -8.03408942e+03  5.80e+02  8.70e+00  1.78e+00  4.41e-01     0s
   8  -6.62061871e+03  3.16e+02  4.31e+00  1.41e+00  4.55e-01     0s
   9  -5.92053095e+03  1.89e+02  2.03e+00  1.22e+00  4.02e-01     0s
  10  -5.43975744e+03  1.02e+02  1.01e+00  1.11e+00  4.62e-01     0s
  11  -5.15594155e+03  5.66e+01  6.76e-01  1.07e+00  4.43e-01     0s
  12  -5.01925254e+03  3.51e+01  4.87e-02  1.02e+00  3.80e-01     0s
  13  -4.81417024e+03  8.92e-06  3.77e-04  1.00e+00  1.00e+00     0s
  14  -4.80983870e+03  1.49e-07  6.12e-06  1.00e+00  1.00e+00     0s
  15  -4.80928850e+03  9.76e-09  3.21e-08  1.00e+00  1.00e+00     0s
  16  -2.67605859e+03  9.08e-06  1.76e-03  4.11e-01  6.39e-01     0s
  17  -1.07776937e+03  7.32e-05  7.30e-02  2.90e-01  8.90e-01     0s
  18  -8.46299869e+02  2.98e-05  2.16e-02  1.55e-01  7.37e-01     0s
  19  -7.47353987e+02  1.23e-04  7.70e-03  1.50e-01  1.00e+00     0s
  20  -7.48027478e+02  5.89e-07  1.41e-05  1.50e-01  1.00e+00     0s
  21  -7.47991549e+02  7.79e-10  4.91e-09  1.50e-01  1.00e+00     0s
  22  -4.85387793e+02  9.09e-05  1.01e-01  8.47e-02  3.68e-01     0s
  23  -2.53616592e+02  2.49e-03  2.19e-01  5.22e-02  5.32e-01     0s
  24  -1.08390278e+02  1.45e-03  3.51e-01  3.13e-02  7.83e-01     0s
  25  -8.15951824e+01  5.11e-04  6.53e-03  2.25e-02  1.00e+00     0s
  26  -8.23260149e+01  5.92e-06  2.65e-04  2.25e-02  1.00e+00     0s
  27  -3.11798313e+01  4.96e-04  7.93e-02  1.11e-02  6.22e-01     0s
  28  -1.18801989e+01  3.62e-04  3.37e-02  5.02e-03  7.85e-01     0s
  29  -8.12043342e+00  2.58e-05  5.64e-03  3.38e-03  1.00e+00     0s
  30  -8.04000370e+00  2.51e-05  3.39e-04  3.38e-03  1.00e+00     0s
  31  -8.04029933e+00  1.92e-08  4.45e-07  3.37e-03  1.00e+00     0s
  32  -3.11369263e-01  5.19e-05  1.32e-02  7.24e-04  7.49e-01     0s
  33   1.92286226e+00  9.71e-06  1.81e-03  3.53e-04  9.49e-01     0s
  34   2.02435057e+00  4.50e-06  4.29e-04  3.46e-04  1.00e+00     0s
  35   2.02470883e+00  1.90e-07  6.67e-06  3.46e-04  1.00e+00     0s
  36   2.87336194e+00  6.45e-06  9.05e-04  6.81e-05  7.91e-01     0s
  37   3.09026735e+00  8.12e-07  2.21e-04  1.44e-05  9.94e-01     0s
  38   3.09136878e+00  3.07e-07  6.86e-06  1.43e-05  1.00e+00     0s
  39   3.09136905e+00  8.45e-10  1.21e-08  1.43e-05  1.00e+00     0s
  40   3.13538767e+00  1.76e-08  4.81e-06  3.37e-07  9.76e-01     0s
  41   3.13647354e+00  5.90e-10  4.95e-09  1.65e-07  1.00e+00     0s
  42   3.13699681e+00  3.22e-12  9.01e-10  1.00e-09  1.00e+00     0s

NL barrier solved model in 42 iterations and 0.19 seconds (0.25 work units)
First-order optimal solution
Solution objective 3.136996810414e+00

User-callback calls 148, time in user-callback 0.00 sec
  Sub: Z₀=3.136997 [LOCAL], α=[0.000,0.000,0.000,0.000,0.000,1.037,0.000,0.000,0.000,0.000,0.000,0.000,0.000,0.895,0.000,0.000,0.000,0.000,0.000,0.000,0.000,0.000,1.205,0.000,0.000,0.000,0.000,0.000,0.000,0.000,0.000,0.000,0.000,0.000,0.000,0.000]
  Iter 2: LB=3.136999  UB=Inf  gap=NaN
  Cut: intercept=-913.366801, π_x_range=[-416.4615, 306.2707]
  [ρ-diag] φ̂U=1.00, φ̃U=2.00, λU=2.00
    π_L range=[-134.3519, 96.2707], |π_L|_∞=134.3519
    π_F range=[-268.7763, 193.9178], |π_F|_∞=268.7763
    π_ψ range=[-13.3333, 18.2397], |π_ψ|_∞=18.2397
    ρ̂1: [0.0004, 6.8244], ρ̂3: [0.0000, 4.9785]
    ρ̃1: [0.0000, 6.8291], ρ̃3: [0.0000, 4.9782]
    ρ⁰1: [0.0000, 6.6667], ρ⁰3: [0.0000, 9.1198]
  [φ-diag] φ̂ actual: [0.0000, 1.0000], φ̂U=1.00
  [φ-diag] φ̃ actual: [-0.0000, 0.0000], φ̃U=2.00
  Mini-Benders[1] (mw): LB=3.136999, Z₀(α*)=3.137000, intercept=-8.566232
  Mini-Benders[2] (mw): LB=3.136999, Z₀(α*)=3.137000, intercept=-8.566232
  Mini-Benders[3]: LB stagnated, break
Gurobi Optimizer version 13.0.0 build v13.0.0rc1 (win64 - Windows 10.0 (19045.2))

CPU model: AMD Ryzen 9 5900X 12-Core Processor, instruction set [SSE2|AVX|AVX2]
Thread count: 12 physical cores, 24 logical processors, using up to 24 threads

Non-default parameters:
DualReductions  0
NonConvex  2

Optimize a model with 4218 rows, 8405 columns and 20033 nonzeros (Max)
Model fingerprint: 0x219cd274
Model has 1496 linear objective coefficients
Model has 1440 quadratic constraints
Coefficient statistics:
  Matrix range     [2e-01, 3e+01]
  QMatrix range    [1e+00, 1e+00]
  QLMatrix range   [1e+00, 1e+00]
  Objective range  [1e+00, 2e+00]
  Bounds range     [5e-02, 3e+00]
  RHS range        [5e-02, 3e+00]
Presolve removed 102 rows and 184 columns
Presolve time: 0.00s
Presolved: 5412 rows, 8221 columns, 19681 nonzeros
Ordering time: 0.02s

Barrier statistics:
 Free vars  : 200
 AA' NZ     : 3.622e+04
 Factor NZ  : 1.958e+05 (roughly 7 MB of memory)
 Factor Ops : 1.610e+07 (less than 1 second per iteration)
 Threads    : 12

                  Objective                Residual
Iter       Primal          Dual         Primal    Dual     Compl     Time
   0  -7.76593408e+03 -0.00000000e+00  1.31e+03 1.00e+00  1.98e+01     0s
   1  -7.96664081e+03  7.01985637e+02  5.75e+02 5.05e+00  1.11e+01     0s
   2  -7.28266322e+03  9.17606975e+02  1.32e+02 1.80e+00  3.89e+00     0s
   3  -5.05538928e+03  7.03467186e+02  1.57e+01 6.57e-01  1.35e+00     0s
   4  -1.79796878e+03  5.12925558e+02  6.64e-01 1.81e-01  3.58e-01     0s
   5  -4.11446960e+02  2.09241494e+02  1.29e-01 2.36e-02  6.72e-02     0s
   6  -8.63334967e+01  7.34972629e+01  3.28e-02 3.56e-03  1.60e-02     0s
   7  -3.12764870e+01  2.31575879e+01  1.46e-02 2.73e-04  4.64e-03     0s
   8  -3.66990569e-01  5.51629894e+00  1.35e-03 1.65e-05  4.84e-04     0s
   9   3.01462427e+00  3.21736950e+00  3.90e-05 1.37e-07  1.63e-05     0s
  10   3.13585113e+00  3.13737701e+00  2.00e-07 8.77e-09  1.18e-07     0s
  11   3.13699966e+00  3.13700003e+00  5.41e-09 2.68e-13  1.38e-11     0s
  12   3.13700000e+00  3.13700000e+00  2.29e-10 7.11e-15  4.61e-17     0s

Barrier solved model in 12 iterations and 0.05 seconds (0.05 work units)
Optimal objective 3.13700000e+00


User-callback calls 54, time in user-callback 0.00 sec
  α-step: Z₀=3.137000, α=[0.000,0.000,0.000,0.000,0.000,1.032,0.000,0.000,0.000,0.000,0.000,0.000,0.000,0.958,0.000,0.000,0.000,0.000,0.000,0.000,0.000,0.000,1.146,0.000,0.000,0.000,0.000,0.000,0.000,0.000,0.000,0.000,0.000,0.000,0.000,0.000]
  Alt-Benders[1] (mw): LB=3.137000, Z₀(α*)=3.137000, intercept=-8.597491
  Alt-Benders[2] (mw): LB=3.137000, Z₀(α*)=3.137000, intercept=-8.597491
  Alt-Benders[3] (mw): LB=3.137000, Z₀(α*)=3.137000, intercept=-8.597491
  Alt-Benders[4]: LB stagnated, break
  OMP re-solve: 0.001s

=== True-DRO Benders iter 3 ===
  OMP: t₀=3.137000, UB=Inf, gap=NaN, x=[0, 0, 0, 0, 0, 1, 0, 0, 0, 0, 0, 0, 0, 1, 0, 0, 0, 0, 0, 0, 0, 0, 1, 0, 0, 0, 0, 0, 0, 0, 0, 0, 0, 0, 0, 0] (0.000s)
Set parameter TimeLimit to value 30
Set parameter MIPGap to value 0.0001
Set parameter MIPFocus to value 0
Gurobi Optimizer version 13.0.0 build v13.0.0rc1 (win64 - Windows 10.0 (19045.2))

CPU model: AMD Ryzen 9 5900X 12-Core Processor, instruction set [SSE2|AVX|AVX2]
Thread count: 12 physical cores, 24 logical processors, using up to 24 threads

Non-default parameters:
TimeLimit  30
DualReductions  0
NonConvex  2

Optimize a model with 4218 rows, 8405 columns and 20033 nonzeros (Max)
Model fingerprint: 0x90a82098
Model has 1496 linear objective coefficients
Model has 1440 quadratic constraints
Coefficient statistics:
  Matrix range     [2e-01, 3e+01]
  QMatrix range    [1e+00, 1e+00]
  QLMatrix range   [1e+00, 1e+00]
  Objective range  [1e+00, 2e+00]
  Bounds range     [2e-01, 3e+00]
  RHS range        [5e-02, 3e+00]

Continuous model is non-convex -- solving as a MIP

Presolve time: 0.02s
Presolved: 9978 rows, 8406 columns, 31553 nonzeros
Presolved model has 1440 bilinear constraint(s)
Variable types: 8406 continuous, 0 integer (0 binary)
Found heuristic solution: objective 3.1369970

Root relaxation: objective 9.411000e+00, 4390 iterations, 0.08 seconds (0.16 work units)

    Nodes    |    Current Node    |     Objective Bounds      |     Work
 Expl Unexpl |  Obj  Depth IntInf | Incumbent    BestBd   Gap | It/Node Time

     0     0    9.41100    0  304    3.13700    9.41100   200%     -    0s
     0     0          -    0         3.13700    3.13700  0.00%     -    0s

Cutting planes:
  RLT: 89

Explored 1 nodes (4410 simplex iterations) in 0.28 seconds (0.36 work units)
Thread count was 24 (of 24 available processors)

Solution count 1: 3.137 

Optimal solution found (tolerance 1.00e-04)
Best objective 3.136997003705e+00, best bound 3.137000000000e+00, gap 0.0001%

User-callback calls 81, time in user-callback 0.00 sec
  Sub: Z₀=3.136997, α=[0.000,0.000,0.000,0.000,0.000,1.048,0.000,0.000,0.000,0.000,0.000,0.000,0.000,0.903,0.000,0.000,0.000,0.000,0.000,0.000,0.000,0.000,1.186,0.000,0.000,0.000,0.000,0.000,0.000,0.000,0.000,0.000,0.000,0.000,0.000,0.000]
  Iter 3: LB=3.137000  UB=3.136997  gap=9.87e-07
True-DRO Benders converged at iter 3 (gap=9.87e-07)
  Wall time: 3.70 sec
  OMP  time: mean=0.074s, median=0.105s, max=0.122s
  Sub  time (exact): mean=0.293s, median=0.293s, q90=0.293s, max=0.293s (n=1/3)

----------------------------------------
True-DRO: status=Optimal, Z₀=3.136997, iters=3, time=3.70s
  LB=3.137000, UB=3.136997, gap=9.87e-07
  x* = [0, 0, 0, 0, 0, 1, 0, 0, 0, 0, 0, 0, 0, 1, 0, 0, 0, 0, 0, 0, 0, 0, 1, 0, 0, 0, 0, 0, 0, 0, 0, 0, 0, 0, 0, 0]
  α* = [0.000, 0.000, 0.000, 0.000, 0.000, 1.048, 0.000, 0.000, 0.000, 0.000, 0.000, 0.000, 0.000, 0.903, 0.000, 0.000, 0.000, 0.000, 0.000, 0.000, 0.000, 0.000, 1.186, 0.000, 0.000, 0.000, 0.000, 0.000, 0.000, 0.000, 0.000, 0.000, 0.000, 0.000, 0.000, 0.000]
  Profile saved → C:\Users\user\robust_bilevel_network_games\true_dro\profiles.jls (16 entries)
============================================================
Primal Recovery: x* → α* → (h*, λ*, ψ⁰*)
============================================================
  x* = [0, 0, 0, 0, 0, 1, 0, 0, 0, 0, 0, 0, 0, 1, 0, 0, 0, 0, 0, 0, 0, 0, 1, 0, 0, 0, 0, 0, 0, 0, 0, 0, 0, 0, 0, 0]
  α* = [0.0000, 0.0000, 0.0000, 0.0000, 0.0000, 1.0480, 0.0000, 0.0000, 0.0000, 0.0000, 0.0000, 0.0000, 0.0000, 0.9026, 0.0000, 0.0000, 0.0000, 0.0000, 0.0000, 0.0000, 0.0000, 0.0000, 1.1864, 0.0000, 0.0000, 0.0000, 0.0000, 0.0000, 0.0000, 0.0000, 0.0000, 0.0000, 0.0000, 0.0000, 0.0000, 0.0000]

  Piece-F obj = 0.000000
  λ*   = -0.000000
  Σh*  = 0.000000  (budget: λw = -0.000000)

  h* (nonzero arcs):
  ψ⁰* (nonzero arcs):

  Per-scenario sink flow ỹ_ts:
    s=1: ỹ_ts=-0.000000
    s=2: ỹ_ts=-0.000000
    s=3: ỹ_ts=-0.000000
    s=4: ỹ_ts=-0.000000
    s=5: ỹ_ts=-0.000000
    s=6: ỹ_ts=-0.000000
    s=7: ỹ_ts=-0.000000
    s=8: ỹ_ts=-0.000000
    s=9: ỹ_ts=-0.000000
    s=10: ỹ_ts=-0.000000
    s=11: ỹ_ts=-0.000000
    s=12: ỹ_ts=-0.000000
    s=13: ỹ_ts=-0.000000
    s=14: ỹ_ts=-0.000000
    s=15: ỹ_ts=-0.000000
    s=16: ỹ_ts=-0.000000
    s=17: ỹ_ts=-0.000000
    s=18: ỹ_ts=-0.000000
    s=19: ỹ_ts=-0.000000
    s=20: ỹ_ts=-0.000000

  Z₀(Benders) = 3.136997
  Piece-F(recovered) = 0.000000

Finished: 2026-04-16T18:54:29.511
